COLUMNS

passenger_count
pickup_ID
dropoff_ID
request_time_sec
pickup_district
dropoff_district
LDuals
IDuals
vehicle_ID
pick_position
drop_position

REQUESTS_INFO
1      47        607       29728     98        189       120       120       15        1         3         
1      479       552       29722     52        189       117       117       23        1         2         
1      888       925       29721     290       290       118       118       126       1         3         
1      871       626       29703     291       189       166       166       221       1         3         
4      259       794       29688     87        290       234       234       237       1         2         
1      837       864       29717     290       290       113       113       263       1         2         
3      430       624       29708     52        189       110       110       298       1         3         
3      573       947       29716     189       290       130       130       357       1         2         
3      1004      602       29668     291       189       273       273       359       1         2         
1      971       674       29611     290       189       234       234       393       1         3         
2      394       604       29729     100       189       73        73        431       1         2         
1      354       627       29721     119       189       114       114       435       1         2         
3      917       903       29657     291       290       244       244       444       1         2         
1      971       805       29704     290       291       141       141       445       1         2         
1      1002      627       29720     291       189       182       182       523       1         2         
2      237       331       29633     87        127       264       264       533       1         2         
1      217       393       29708     87        52        165       165       534       1         3         
1      279       332       29708     87        87        257       257       534       2         4         
1      398       580       29702     168       189       141       141       541       1         3         
1      435       435       29720     52        52        122       122       547       1         2         
1      960       748       29696     291       290       169       169       560       1         4         
1      907       677       29682     290       189       195       195       645       1         2         
1      882       767       29710     290       290       113       113       647       1         2         
3      794       650       29617     290       189       215       215       722       1         2         
1      184       46        29704     87        98        225       225       736       1         2         
1      312       438       29720     87        100       135       135       818       1         2         
2      295       122       29673     87        54        222       222       876       1         2         
3      549       828       29706     52        291       116       116       1030      1         3         
2      792       582       29714     290       189       107       107       1058      1         3         
1      608       675       29713     189       189       109       109       1081      1         2         
3      891       1189      29652     291       192       234       234       1153      1         2         
1      960       652       29716     291       189       172       172       1162      1         3         
1      849       698       29712     291       189       206       206       1194      1         2         
1      1045      656       29706     291       290       106       106       1204      1         4         
1      908       924       29695     290       290       187       187       1220      1         2         
1      905       1037      29666     290       84        185       185       1229      1         2         
2      980       1147      29700     291       291       169       169       1248      1         3         
2      796       535       29729     290       189       126       126       1314      1         3         
1      837       722       29710     290       290       105       105       1316      1         3         
1      757       604       29707     131       189       95        95        1354      1         2         
1      218       433       29688     87        52        215       215       1356      1         3         
2      573       947       29716     189       290       130       130       1372      1         3         
1      1043      882       29653     291       290       256       256       1381      1         2         
2      841       653       29718     290       189       141       141       1382      1         2         
1      960       624       29708     291       189       180       180       1402      1         3         
1      906       882       29703     290       290       126       126       1418      1         2         
1      983       720       29700     291       290       211       211       1436      1         4         
1      983       720       29723     291       290       188       188       1436      2         3         
1      503       646       29730     52        280       0         0         0         0         0         
1      208       267       29730     286       266       0         0         0         0         0         
1      1011      702       29730     84        290       0         0         0         0         0         
1      971       695       29730     290       189       0         0         0         0         0         
1      461       330       29730     189       127       0         0         0         0         0         
1      703       294       29730     290       87        0         0         0         0         0         
1      629       604       29730     189       189       0         0         0         0         0         
1      475       351       29730     52        52        0         0         0         0         0         
1      721       904       29731     290       290       0         0         0         0         0         
1      505       624       29731     52        189       0         0         0         0         0         
1      267       387       29731     266       299       0         0         0         0         0         
1      865       581       29731     290       189       0         0         0         0         0         
1      549       649       29731     52        189       0         0         0         0         0         
1      134       21        29731     9         98        0         0         0         0         0         
3      461       572       29731     189       131       0         0         0         0         0         
2      461       572       29731     189       131       0         0         0         0         0         
1      606       884       29731     189       290       0         0         0         0         0         
1      646       668       29731     280       280       0         0         0         0         0         
1      686       507       29732     131       189       0         0         0         0         0         
1      836       766       29732     290       290       0         0         0         0         0         
2      874       1065      29732     291       291       0         0         0         0         0         
1      647       828       29732     280       291       0         0         0         0         0         
1      947       722       29732     290       290       0         0         0         0         0         
1      913       647       29732     291       280       0         0         0         0         0         
1      461       629       29732     189       189       0         0         0         0         0         
1      603       601       29732     189       189       0         0         0         0         0         
1      397       674       29732     168       189       0         0         0         0         0         
1      308       142       29732     127       54        0         0         0         0         0         
2      990       788       29733     290       290       0         0         0         0         0         
3      990       788       29733     290       290       0         0         0         0         0         
1      441       558       29733     168       189       0         0         0         0         0         
1      909       386       29734     290       299       0         0         0         0         0         
1      816       63        29734     290       98        0         0         0         0         0         
1      394       98        29734     100       98        0         0         0         0         0         
2      676       904       29734     189       290       0         0         0         0         0         
2      621       654       29735     280       189       0         0         0         0         0         
3      621       654       29735     280       189       0         0         0         0         0         
1      804       580       29735     291       189       0         0         0         0         0         
2      937       805       29735     291       291       0         0         0         0         0         
3      527       415       29735     52        100       0         0         0         0         0         
3      578       698       29735     189       189       0         0         0         0         0         
1      923       696       29735     290       189       0         0         0         0         0         
1      390       116       29736     52        9         0         0         0         0         0         
1      699       593       29736     290       52        0         0         0         0         0         
1      835       924       29736     290       290       0         0         0         0         0         
1      64        524       29736     98        52        0         0         0         0         0         
1      873       599       29736     291       280       0         0         0         0         0         
1      527       621       29736     52        280       0         0         0         0         0         
4      992       749       29736     290       290       0         0         0         0         0         
1      606       600       29736     189       280       0         0         0         0         0         
1      458       116       29736     52        9         0         0         0         0         0         
2      442       357       29736     168       277       0         0         0         0         0         
3      700       837       29737     290       290       0         0         0         0         0         
1      744       651       29737     290       189       0         0         0         0         0         
1      557       512       29737     189       199       0         0         0         0         0         
1      526       621       29737     52        280       0         0         0         0         0         
1      904       812       29737     290       290       0         0         0         0         0         
1      499       370       29737     52        52        0         0         0         0         0         
1      888       772       29737     290       290       0         0         0         0         0         
3      887       790       29738     290       290       0         0         0         0         0         
1      605       479       29738     189       52        0         0         0         0         0         
1      528       409       29739     52        52        0         0         0         0         0         
3      345       432       29739     299       52        0         0         0         0         0         
3      345       432       29739     299       52        0         0         0         0         0         
4      549       62        29739     52        98        0         0         0         0         0         
3      139       48        29740     57        98        0         0         0         0         0         
3      139       48        29740     57        98        0         0         0         0         0         
1      863       1078      29740     290       84        0         0         0         0         0         
1      983       743       29740     291       290       0         0         0         0         0         
1      747       550       29741     290       189       0         0         0         0         0         
2      817       48        29741     290       98        0         0         0         0         0         
1      745       601       29741     290       189       0         0         0         0         0         
1      248       369       29741     266       52        0         0         0         0         0         
1      790       696       29741     290       189       0         0         0         0         0         
1      551       593       29741     189       52        0         0         0         0         0         
1      488       670       29741     199       280       0         0         0         0         0         
1      722       860       29741     290       290       0         0         0         0         0         
1      689       674       29741     131       189       0         0         0         0         0         
2      624       617       29741     189       131       0         0         0         0         0         
3      624       617       29741     189       131       0         0         0         0         0         
1      214       214       29741     207       207       0         0         0         0         0         
1      687       399       29742     131       168       0         0         0         0         0         
1      312       715       29742     87        131       0         0         0         0         0         
1      621       649       29742     280       189       0         0         0         0         0         
1      209       304       29742     266       299       0         0         0         0         0         
1      924       555       29742     290       199       0         0         0         0         0         
1      31        534       29743     9         199       0         0         0         0         0         
1      813       575       29743     290       189       0         0         0         0         0         
1      905       699       29743     290       290       0         0         0         0         0         
1      452       556       29743     52        199       0         0         0         0         0         
3      78        20        29743     9         98        0         0         0         0         0         
1      760       649       29744     291       189       0         0         0         0         0         
4      653       721       29744     189       290       0         0         0         0         0         
1      654       580       29744     189       189       0         0         0         0         0         
1      693       551       29744     280       189       0         0         0         0         0         
2      354       674       29744     119       189       0         0         0         0         0         
1      397       275       29744     168       87        0         0         0         0         0         
1      1128      526       29744     291       52        0         0         0         0         0         
1      21        134       29744     98        9         0         0         0         0         0         
1      699       413       29745     290       52        0         0         0         0         0         
1      134       118       29745     9         286       0         0         0         0         0         
2      466       529       29745     199       189       0         0         0         0         0         
1      992       48        29745     290       98        0         0         0         0         0         
1      1010      675       29745     290       189       0         0         0         0         0         
1      508       603       29746     199       189       0         0         0         0         0         
1      332       413       29746     87        52        0         0         0         0         0         
1      961       625       29746     291       189       0         0         0         0         0         
2      61        526       29746     98        52        0         0         0         0         0         
1      479       20        29746     52        98        0         0         0         0         0         
1      369       624       29747     52        189       0         0         0         0         0         
2      1004      859       29747     291       290       0         0         0         0         0         
1      791       881       29747     290       290       0         0         0         0         0         
1      939       652       29747     291       189       0         0         0         0         0         
1      811       814       29747     290       290       0         0         0         0         0         
1      904       789       29747     290       290       0         0         0         0         0         
1      970       627       29747     290       189       0         0         0         0         0         
1      277       506       29747     87        189       0         0         0         0         0         
1      556       651       29747     199       189       0         0         0         0         0         
1      397       534       29747     168       199       0         0         0         0         0         
1      463       134       29747     168       9         0         0         0         0         0         
1      813       968       29748     290       290       0         0         0         0         0         
1      416       715       29748     100       131       0         0         0         0         0         
2      307       748       29748     127       290       0         0         0         0         0         
1      485       430       29748     189       52        0         0         0         0         0         
1      959       770       29749     291       290       0         0         0         0         0         
1      701       605       29750     290       189       0         0         0         0         0         
1      873       992       29750     291       290       0         0         0         0         0         
2      524       117       29750     52        286       0         0         0         0         0         
1      355       549       29750     119       52        0         0         0         0         0         
3      791       746       29750     290       290       0         0         0         0         0         
3      791       746       29750     290       290       0         0         0         0         0         
1      715       914       29750     131       291       0         0         0         0         0         
1      557       481       29751     189       189       0         0         0         0         0         
1      512       464       29751     199       168       0         0         0         0         0         
1      789       947       29751     290       290       0         0         0         0         0         
2      818       951       29751     290       290       0         0         0         0         0         
1      578       710       29752     189       131       0         0         0         0         0         
1      311       990       29752     87        290       0         0         0         0         0         
3      348       211       29752     299       266       0         0         0         0         0         
1      862       582       29752     290       189       0         0         0         0         0         
3      556       554       29752     199       189       0         0         0         0         0         
1      331       253       29752     127       206       0         0         0         0         0         
1      335       20        29752     119       98        0         0         0         0         0         
1      252       393       29752     206       52        0         0         0         0         0         
1      332       288       29752     87        127       0         0         0         0         0         
1      78        789       29753     9         290       0         0         0         0         0         
1      881       670       29753     290       280       0         0         0         0         0         
1      858       624       29753     290       189       0         0         0         0         0         
3      212       430       29754     266       52        0         0         0         0         0         
1      791       699       29754     290       290       0         0         0         0         0         
2      212       430       29754     266       52        0         0         0         0         0         
2      716       291       29754     189       87        0         0         0         0         0         
3      62        581       29754     98        189       0         0         0         0         0         
1      1088      1207      29755     291       192       0         0         0         0         0         
1      917       696       29755     291       189       0         0         0         0         0         
2      347       414       29755     299       100       0         0         0         0         0         
3      157       63        29755     54        98        0         0         0         0         0         
3      157       63        29755     54        98        0         0         0         0         0         
1      686       268       29756     131       299       0         0         0         0         0         
2      780       645       29756     291       280       0         0         0         0         0         
1      479       81        29756     52        98        0         0         0         0         0         
1      269       331       29756     127       127       0         0         0         0         0         
1      813       650       29756     290       189       0         0         0         0         0         
1      118       331       29757     286       127       0         0         0         0         0         
1      617       116       29757     131       9         0         0         0         0         0         
1      413       749       29757     52        290       0         0         0         0         0         
1      1066      1004      29757     291       291       0         0         0         0         0         
1      574       457       29757     189       52        0         0         0         0         0         
1      927       925       29758     290       290       0         0         0         0         0         
1      189       116       29758     286       9         0         0         0         0         0         
1      441       603       29758     168       189       0         0         0         0         0         
2      858       724       29759     290       290       0         0         0         0         0         
3      858       724       29759     290       290       0         0         0         0         0         
1      1378      1199      29759     129       84        0         0         0         0         0         
2      418       673       29759     168       189       0         0         0         0         0         
1      317       531       29759     277       189       0         0         0         0         0         
1      549       597       29759     52        131       0         0         0         0         0         
